NAME: test1874
TYPE: TSP
DIMENSION: 11
EDGE_WEIGHT_TYPE: EUC_2D
NODE_COORD_SECTION
1 65.24966755241232 33.24471694158703
2 74.83222066628244 2.7559426965029887
3 41.07996298568318 72.19444364303881
4 78.96462434935731 98.48685427518375
5 11.15430637273408 51.30462132196237
6 74.63406694682392 2.9589710712983885
7 28.772085238033583 51.042106558721876
8 68.160125295765 29.607200921787257
9 94.01633047195675 97.63699234067799
10 93.89406626227905 4.015696956483872
11 82.51945491478438 89.85163109070412
EOF
